100 8
799 366
812 447
959 760
786 290
829 97
153 552
794 127
158 213
530 474
288 361
342 626
275 435
692 362
425 601
531 574
583 455
406 426
125 250
683 542
755 236
892 699
581 496
359 450
358 323
186 400
869 769
767 544
821 725
529 419
499 465
725 512
734 503
334 265
977 712
203 381
315 497
610 353
277 637
786 439
972 807
113 710
418 564
259 72
769 450
44 737
835 660
131 582
613 319
762 231
639 393
418 487
456 533
705 96
214 249
104 726
797 690
660 460
210 415
687 300
474 579
270 445
908 811
313 298
135 222
337 288
671 282
500 497
441 329
676 517
254 360
151 482
217 368
353 346
820 459
521 511
657 434
704 122
784 655
597 490
549 521
345 480
232 76
127 117
448 422
789 650
784 310
266 239
664 183
259 530
233 322
165 311
254 332
415 558
888 770
767 328
409 463
628 340
848 634
644 578
859 317
